decision_x1=[0,4];
decision_x2=[0,4];
decision_x3=[0,4];
decision_x4=[0,4];
decision_x5=[0,4];
decision_x6=[0,4];
random_y1=[0,4];
random_y2=[0,4];
random_y3=[0,4];
constraint_x3_x1=[
0,1,6.7|
0,2,5.3|
0,3,2.1|
0,4,5.5|
1,0,4.8|
1,2,1.4|
1,3,2.6|
1,4,0.55|
2,0,6.2|
2,1,2|
2,3,3.3|
2,4,1.6|
3,0,1.2|
3,1,6.8|
3,2,8|
3,4,9.5|
4,0,4.5|
4,1,6.1|
4,2,2.2|
4,3,8.7|
];
constraint_x3_x2=[
0,1,8.2|
0,2,3.2|
0,3,4.2|
0,4,4.8|
1,0,2.9|
1,2,3.4|
1,3,4.5|
1,4,2.4|
2,0,1|
2,1,0.85|
2,3,0.45|
2,4,1.1|
3,0,8.4|
3,1,4.7|
3,2,6.1|
3,4,1.9|
4,0,7.8|
4,1,9.2|
4,2,1.8|
4,3,0.47|
];
constraint_x4_x1=[
0,1,9.8|
0,2,2.4|
0,3,8.6|
0,4,4|
1,0,7|
1,2,3.3|
1,3,9.7|
1,4,5.3|
2,0,4.7|
2,1,8.9|
2,3,9.3|
2,4,8.1|
3,0,4.4|
3,1,6.5|
3,2,0.93|
3,4,0.29|
4,0,1.7|
4,1,6.9|
4,2,3.3|
4,3,8.7|
];
constraint_x5_x2=[
0,1,6.2|
0,2,0.34|
0,3,8.1|
0,4,3.7|
1,0,4.2|
1,2,9|
1,3,1.3|
1,4,0.61|
2,0,9.8|
2,1,5.2|
2,3,3.6|
2,4,9.9|
3,0,6.1|
3,1,9.8|
3,2,8.4|
3,4,6.9|
4,0,2.7|
4,1,4.2|
4,2,2.7|
4,3,8.4|
];
constraint_x5_x3=[
0,1,6.9|
0,2,9.2|
0,3,5|
0,4,9.6|
1,0,4.1|
1,2,6.7|
1,3,2.6|
1,4,1.1|
2,0,6.9|
2,1,8.6|
2,3,3.9|
2,4,10|
3,0,1.5|
3,1,2|
3,2,8.6|
3,4,7|
4,0,3.6|
4,1,0.44|
4,2,4.7|
4,3,4|
];
constraint_x6_x2=[
0,1,5.5|
0,2,4.7|
0,3,0.4|
0,4,5.1|
1,0,1.9|
1,2,5.1|
1,3,1.7|
1,4,7.4|
2,0,0.24|
2,1,3.4|
2,3,5.7|
2,4,1.7|
3,0,8.7|
3,1,6.5|
3,2,6.1|
3,4,2.4|
4,0,5.3|
4,1,1.3|
4,2,9.8|
4,3,0.21|
];
constraint_x6_x3=[
0,1,8.5|
0,2,7.2|
0,3,6.1|
0,4,8.6|
1,0,0.41|
1,2,7.6|
1,3,2.5|
1,4,5|
2,0,0.093|
2,1,1.6|
2,3,3.1|
2,4,3.2|
3,0,2.4|
3,1,8|
3,2,0.46|
3,4,7.4|
4,0,9.4|
4,1,5|
4,2,0.88|
4,3,1.2|
];
constraint_x6_x5=[
0,1,8.8|
0,2,8.9|
0,3,6.8|
0,4,1.4|
1,0,4.2|
1,2,4.3|
1,3,6.9|
1,4,7.9|
2,0,8.5|
2,1,1.6|
2,3,5|
2,4,6.6|
3,0,1.1|
3,1,3.7|
3,2,5.9|
3,4,7.3|
4,0,6.7|
4,1,0.9|
4,2,2.5|
4,3,6.3|
];
constraint_x1_y1=[
0,0,4.6|
0,1,7|
0,2,3.7|
0,3,4.7|
0,4,1.6|
1,0,9.1|
1,1,4.5|
1,2,7.5|
1,3,6.6|
1,4,7.5|
2,0,6.2|
2,1,9.5|
2,2,7.2|
2,3,1.5|
2,4,6.9|
3,0,3.2|
3,1,0.29|
3,2,0.71|
3,3,4.1|
3,4,4.5|
4,0,6.6|
4,1,1.5|
4,2,0.63|
4,3,8.8|
4,4,8.6|
];
constraint_x2_y2=[
0,0,0.13|
0,1,8.7|
0,2,0.78|
0,3,6.1|
0,4,9.2|
1,0,3.9|
1,1,7.7|
1,2,5.3|
1,3,4.5|
1,4,7.7|
2,0,9.1|
2,1,6.8|
2,2,7.2|
2,3,5.6|
2,4,4|
3,0,2.6|
3,1,1.2|
3,2,4.1|
3,3,2.6|
3,4,9.4|
4,0,9.9|
4,1,0.047|
4,2,4.1|
4,3,0.98|
4,4,1.5|
];
constraint_x3_y3=[
0,0,8.7|
0,1,9.6|
0,2,9.1|
0,3,6.5|
0,4,2.7|
1,0,5.4|
1,1,7.8|
1,2,0.62|
1,3,7|
1,4,5.5|
2,0,1.1|
2,1,4.7|
2,2,0.56|
2,3,6.7|
2,4,9.7|
3,0,4.5|
3,1,8.4|
3,2,0.2|
3,3,8.6|
3,4,8.9|
4,0,2.3|
4,1,7.7|
4,2,3.7|
4,3,1.9|
4,4,2.7|
];
initial_distribution_y1=[0.21,0.1,0.28,0.081,0.32];
initial_distribution_y2=[0.084,0.01,0.41,0.2,0.29];
initial_distribution_y3=[0.2,0.26,0.21,0.078,0.25];
transition_y1=[
0.083,0.23,0.19,0.26,0.24|
0.32,0.12,0.22,0.091,0.26|
0.32,0.2,0.29,0.13,0.054|
0.13,0.28,0.3,0.19,0.1|
0.12,0.17,0.34,0.058,0.31|
];
transition_y2=[
0.1,0.35,0.07,0.29,0.18|
0.075,0.25,0.32,0.29,0.063|
0.29,0.055,0.3,0.036,0.32|
0.15,0.31,0.27,0.17,0.1|
0.31,0.0081,0.2,0.3,0.18|
];
transition_y3=[
0.19,0.018,0.25,0.32,0.22|
0.31,0.29,0.23,0.12,0.055|
0.27,0.058,0.19,0.21,0.27|
0.087,0.32,0.23,0.19,0.17|
0.17,0.079,0.37,0.2,0.17|
];
